proyfinal/src/viki/013/andrea/andrea-localstore/experimentInOfficeAgust.take6/worker_1/1c0ee215-6e7f-4739-999a-857d82193dbe.als.cnf.out
Reading from standard input... Use '--help' for help.
============================[ Problem Statistics ]=============================
|                                                                             |
|  Number of variables:         87638                                         |
|  Number of clauses:          161767                                         |
|  Parse time:                   0.04 s                                       |
|                                                                             |
============================[ Search Statistics ]==============================
| Conflicts |          ORIGINAL         |          LEARNT          | Progress |
|           |    Vars  Clauses Literals |    Limit  Clauses Lit/Cl |          |
===============================================================================
|       100 |   61936   103653   258929 |    38006      100     34 | 29.327 % |
|       250 |   61936   103653   258929 |    41806      250     66 | 29.327 % |
|       475 |   61936   103653   258929 |    45987      475     62 | 29.327 % |
|       812 |   61936   103653   258929 |    50586      812     67 | 29.327 % |
|      1318 |   61936   103653   258929 |    55644     1318     69 | 29.327 % |
|      2077 |   61936   103653   258929 |    61209     2077     67 | 29.327 % |
|      3216 |   61935   103609   258839 |    67330     3214     62 | 29.329 % |
|      4924 |   47487    62330   157677 |    74063     4162     58 | 45.815 % |
|      7486 |   47147    60896   154257 |    81469     5912     49 | 46.203 % |
===============================================================================
restarts              : 44
conflicts             : 10052          (7931 /sec)
decisions             : 29107          (0.00 % random) (22966 /sec)
propagations          : 15367643       (12125512 /sec)
conflict literals     : 447759         (47.22 % deleted)
Memory used           : 25.46 MB
CPU time              : 1.26738 s

UNSATISFIABLE
